
Gurobi 7.0.1 (win64, Python) logging started 11/12/16 20:00:57

Optimize a model with 63 rows, 95 columns and 208 nonzeros
Coefficient statistics:
  Matrix range     [7e-02, 6e+01]
  Objective range  [0e+00, 0e+00]
  Bounds range     [0e+00, 0e+00]
  RHS range        [1e+00, 1e+00]
Presolve removed 63 rows and 95 columns
Presolve time: 0.00s
Presolve: All rows and columns removed
Iteration    Objective       Primal Inf.    Dual Inf.      Time
       0    0.0000000e+00   0.000000e+00   0.000000e+00      0s

Solved in 0 iterations and 0.00 seconds
Optimal objective  0.000000000e+00

Gurobi 7.0.1 (win64, Python) logging started 11/12/16 20:03:26

Optimize a model with 63 rows, 95 columns and 208 nonzeros
Coefficient statistics:
  Matrix range     [7e-02, 6e+01]
  Objective range  [0e+00, 0e+00]
  Bounds range     [0e+00, 0e+00]
  RHS range        [1e+00, 1e+00]
Presolve removed 14 rows and 34 columns
Presolve time: 0.02s

Solved in 0 iterations and 0.02 seconds
Infeasible model

Gurobi 7.0.1 (win64, Python) logging started 11/12/16 20:03:46

Optimize a model with 63 rows, 95 columns and 208 nonzeros
Coefficient statistics:
  Matrix range     [7e-02, 6e+01]
  Objective range  [0e+00, 0e+00]
  Bounds range     [0e+00, 0e+00]
  RHS range        [1e+00, 1e+00]
Presolve removed 14 rows and 34 columns
Presolve time: 0.00s

Solved in 0 iterations and 0.00 seconds
Infeasible model

Gurobi 7.0.1 (win64, Python) logging started 11/13/16 16:06:10

Optimize a model with 63 rows, 95 columns and 208 nonzeros
Coefficient statistics:
  Matrix range     [7e-02, 6e+01]
  Objective range  [0e+00, 0e+00]
  Bounds range     [0e+00, 0e+00]
  RHS range        [1e+00, 1e+00]
Presolve removed 63 rows and 95 columns
Presolve time: 0.00s
Presolve: All rows and columns removed
Iteration    Objective       Primal Inf.    Dual Inf.      Time
       0    0.0000000e+00   0.000000e+00   0.000000e+00      0s

Solved in 0 iterations and 0.00 seconds
Optimal objective  0.000000000e+00

Gurobi 7.0.1 (win64, Python) logging started 11/13/16 17:48:34

Optimize a model with 62 rows, 95 columns and 207 nonzeros
Coefficient statistics:
  Matrix range     [7e-02, 6e+01]
  Objective range  [0e+00, 0e+00]
  Bounds range     [0e+00, 0e+00]
  RHS range        [1e+00, 1e+00]
Presolve removed 62 rows and 95 columns
Presolve time: 0.00s
Presolve: All rows and columns removed
Iteration    Objective       Primal Inf.    Dual Inf.      Time
       0    0.0000000e+00   0.000000e+00   0.000000e+00      0s

Solved in 0 iterations and 0.00 seconds
Optimal objective  0.000000000e+00

Gurobi 7.0.1 (win64, Python) logging started 11/13/16 17:55:07

Optimize a model with 62 rows, 95 columns and 207 nonzeros
Coefficient statistics:
  Matrix range     [7e-02, 6e+01]
  Objective range  [0e+00, 0e+00]
  Bounds range     [0e+00, 0e+00]
  RHS range        [1e+00, 1e+00]
Presolve removed 62 rows and 95 columns
Presolve time: 0.00s
Presolve: All rows and columns removed
Iteration    Objective       Primal Inf.    Dual Inf.      Time
       0    0.0000000e+00   0.000000e+00   0.000000e+00      0s

Solved in 0 iterations and 0.00 seconds
Optimal objective  0.000000000e+00

Gurobi 7.0.1 (win64, Python) logging started 11/13/16 17:55:46

Optimize a model with 62 rows, 95 columns and 207 nonzeros
Coefficient statistics:
  Matrix range     [7e-02, 6e+01]
  Objective range  [0e+00, 0e+00]
  Bounds range     [0e+00, 0e+00]
  RHS range        [1e+00, 1e+00]
Presolve removed 62 rows and 95 columns
Presolve time: 0.00s
Presolve: All rows and columns removed
Iteration    Objective       Primal Inf.    Dual Inf.      Time
       0    0.0000000e+00   0.000000e+00   0.000000e+00      0s

Solved in 0 iterations and 0.00 seconds
Optimal objective  0.000000000e+00

Gurobi 7.0.1 (win64, Python) logging started 11/13/16 17:57:13

Optimize a model with 62 rows, 95 columns and 207 nonzeros
Coefficient statistics:
  Matrix range     [7e-02, 6e+01]
  Objective range  [0e+00, 0e+00]
  Bounds range     [0e+00, 0e+00]
  RHS range        [1e+00, 1e+00]
Presolve removed 62 rows and 95 columns
Presolve time: 0.00s
Presolve: All rows and columns removed
Iteration    Objective       Primal Inf.    Dual Inf.      Time
       0    0.0000000e+00   0.000000e+00   0.000000e+00      0s

Solved in 0 iterations and 0.00 seconds
Optimal objective  0.000000000e+00

Gurobi 7.0.1 (win64, Python) logging started 11/13/16 17:57:44

Optimize a model with 63 rows, 95 columns and 208 nonzeros
Coefficient statistics:
  Matrix range     [7e-02, 6e+01]
  Objective range  [0e+00, 0e+00]
  Bounds range     [0e+00, 0e+00]
  RHS range        [1e+00, 1e+00]
Presolve removed 63 rows and 95 columns
Presolve time: 0.00s
Presolve: All rows and columns removed
Iteration    Objective       Primal Inf.    Dual Inf.      Time
       0    0.0000000e+00   0.000000e+00   0.000000e+00      0s

Solved in 0 iterations and 0.00 seconds
Optimal objective  0.000000000e+00

Gurobi 7.0.1 (win64, Python) logging started 11/13/16 17:58:11

Optimize a model with 74 rows, 95 columns and 362 nonzeros
Coefficient statistics:
  Matrix range     [7e-02, 6e+01]
  Objective range  [0e+00, 0e+00]
  Bounds range     [0e+00, 0e+00]
  RHS range        [1e+00, 1e+00]
Presolve removed 64 rows and 70 columns
Presolve time: 0.00s
Presolved: 10 rows, 25 columns, 94 nonzeros

Iteration    Objective       Primal Inf.    Dual Inf.      Time
       0    0.0000000e+00   4.387500e-01   0.000000e+00      0s
       6    0.0000000e+00   0.000000e+00   0.000000e+00      0s

Solved in 6 iterations and 0.02 seconds
Optimal objective  0.000000000e+00

Gurobi 7.0.1 (win64, Python) logging started 11/13/16 23:23:30

Optimize a model with 74 rows, 95 columns and 362 nonzeros
Coefficient statistics:
  Matrix range     [7e-02, 6e+01]
  Objective range  [0e+00, 0e+00]
  Bounds range     [0e+00, 0e+00]
  RHS range        [1e+00, 1e+00]
Presolve removed 10 rows and 23 columns
Presolve time: 0.00s

Solved in 0 iterations and 0.00 seconds
Infeasible model

Gurobi 7.0.1 (win64, Python) logging started 11/13/16 23:24:26

Optimize a model with 73 rows, 95 columns and 361 nonzeros
Coefficient statistics:
  Matrix range     [7e-02, 6e+01]
  Objective range  [0e+00, 0e+00]
  Bounds range     [0e+00, 0e+00]
  RHS range        [1e+00, 1e+00]
Presolve removed 10 rows and 23 columns
Presolve time: 0.00s

Solved in 0 iterations and 0.00 seconds
Infeasible model

Gurobi 7.0.1 (win64, Python) logging started 11/13/16 23:43:52

Optimize a model with 73 rows, 95 columns and 361 nonzeros
Coefficient statistics:
  Matrix range     [7e-02, 6e+01]
  Objective range  [0e+00, 0e+00]
  Bounds range     [0e+00, 0e+00]
  RHS range        [1e+00, 1e+00]
Presolve removed 10 rows and 23 columns
Presolve time: 0.00s

Solved in 0 iterations and 0.00 seconds
Infeasible model

Gurobi 7.0.1 (win64, Python) logging started 11/14/16 13:17:53

Optimize a model with 73 rows, 95 columns and 361 nonzeros
Coefficient statistics:
  Matrix range     [7e-02, 6e+01]
  Objective range  [0e+00, 0e+00]
  Bounds range     [0e+00, 0e+00]
  RHS range        [1e+00, 1e+00]
Presolve removed 10 rows and 23 columns
Presolve time: 0.00s

Solved in 0 iterations and 0.00 seconds
Infeasible model

Gurobi 7.0.1 (win64, Python) logging started 11/14/16 13:18:13

Optimize a model with 62 rows, 95 columns and 207 nonzeros
Coefficient statistics:
  Matrix range     [7e-02, 6e+01]
  Objective range  [0e+00, 0e+00]
  Bounds range     [0e+00, 0e+00]
  RHS range        [1e+00, 1e+00]
Presolve removed 14 rows and 34 columns
Presolve time: 0.00s

Solved in 0 iterations and 0.00 seconds
Infeasible model

Gurobi 7.0.1 (win64, Python) logging started 11/14/16 15:20:06

Optimize a model with 62 rows, 95 columns and 207 nonzeros
Coefficient statistics:
  Matrix range     [7e-02, 6e+01]
  Objective range  [0e+00, 0e+00]
  Bounds range     [0e+00, 0e+00]
  RHS range        [1e+00, 1e+00]
Presolve removed 14 rows and 34 columns
Presolve time: 0.00s

Solved in 0 iterations and 0.00 seconds
Infeasible model

Gurobi 7.0.1 (win64, Python) logging started 11/14/16 15:22:19

Optimize a model with 18 rows, 19 columns and 44 nonzeros
Coefficient statistics:
  Matrix range     [1e+00, 1e+00]
  Objective range  [0e+00, 0e+00]
  Bounds range     [0e+00, 0e+00]
  RHS range        [1e+00, 1e+00]
Presolve removed 18 rows and 19 columns
Presolve time: 0.00s
Presolve: All rows and columns removed
Iteration    Objective       Primal Inf.    Dual Inf.      Time
       0    0.0000000e+00   0.000000e+00   0.000000e+00      0s

Solved in 0 iterations and 0.00 seconds
Optimal objective  0.000000000e+00

Gurobi 7.0.1 (win64, Python) logging started 11/14/16 15:22:56

Optimize a model with 18 rows, 19 columns and 44 nonzeros
Coefficient statistics:
  Matrix range     [1e+00, 1e+00]
  Objective range  [0e+00, 0e+00]
  Bounds range     [0e+00, 0e+00]
  RHS range        [1e+00, 1e+00]
Presolve removed 18 rows and 19 columns
Presolve time: 0.00s
Presolve: All rows and columns removed
Iteration    Objective       Primal Inf.    Dual Inf.      Time
       0    0.0000000e+00   0.000000e+00   0.000000e+00      0s

Solved in 0 iterations and 0.00 seconds
Optimal objective  0.000000000e+00

Gurobi 7.0.1 (win64, Python) logging started 11/14/16 15:23:21

Optimize a model with 18 rows, 19 columns and 44 nonzeros
Coefficient statistics:
  Matrix range     [1e+00, 1e+00]
  Objective range  [0e+00, 0e+00]
  Bounds range     [0e+00, 0e+00]
  RHS range        [1e+00, 1e+00]
Presolve removed 18 rows and 19 columns
Presolve time: 0.00s
Presolve: All rows and columns removed
Iteration    Objective       Primal Inf.    Dual Inf.      Time
       0    0.0000000e+00   0.000000e+00   0.000000e+00      0s

Solved in 0 iterations and 0.00 seconds
Optimal objective  0.000000000e+00

Gurobi 7.0.1 (win64, Python) logging started 11/14/16 15:24:28

Optimize a model with 19 rows, 19 columns and 45 nonzeros
Coefficient statistics:
  Matrix range     [1e+00, 1e+00]
  Objective range  [0e+00, 0e+00]
  Bounds range     [0e+00, 0e+00]
  RHS range        [1e+00, 1e+00]
Presolve removed 10 rows and 11 columns
Presolve time: 0.00s

Solved in 0 iterations and 0.00 seconds
Infeasible model

Gurobi 7.0.1 (win64, Python) logging started 11/14/16 15:24:36

Optimize a model with 18 rows, 19 columns and 44 nonzeros
Coefficient statistics:
  Matrix range     [1e+00, 1e+00]
  Objective range  [0e+00, 0e+00]
  Bounds range     [0e+00, 0e+00]
  RHS range        [1e+00, 1e+00]
Presolve removed 11 rows and 13 columns
Presolve time: 0.00s

Solved in 0 iterations and 0.00 seconds
Infeasible model

Gurobi 7.0.1 (win64, Python) logging started 11/14/16 15:25:04

Optimize a model with 18 rows, 19 columns and 44 nonzeros
Coefficient statistics:
  Matrix range     [1e+00, 1e+00]
  Objective range  [0e+00, 0e+00]
  Bounds range     [0e+00, 0e+00]
  RHS range        [1e+00, 1e+00]
Presolve removed 18 rows and 19 columns
Presolve time: 0.00s
Presolve: All rows and columns removed
Iteration    Objective       Primal Inf.    Dual Inf.      Time
       0    0.0000000e+00   0.000000e+00   0.000000e+00      0s
Extra one simplex iteration after uncrush
       1    0.0000000e+00   0.000000e+00   0.000000e+00      0s

Solved in 1 iterations and 0.00 seconds
Optimal objective  0.000000000e+00

Gurobi 7.0.1 (win64, Python) logging started 11/14/16 15:27:13

Optimize a model with 16 rows, 19 columns and 42 nonzeros
Coefficient statistics:
  Matrix range     [1e+00, 1e+00]
  Objective range  [0e+00, 0e+00]
  Bounds range     [0e+00, 0e+00]
  RHS range        [1e+00, 1e+00]
Presolve removed 16 rows and 19 columns
Presolve time: 0.00s
Presolve: All rows and columns removed
Iteration    Objective       Primal Inf.    Dual Inf.      Time
       0    0.0000000e+00   0.000000e+00   0.000000e+00      0s
Extra one simplex iteration after uncrush
       1    0.0000000e+00   0.000000e+00   0.000000e+00      0s

Solved in 1 iterations and 0.00 seconds
Optimal objective  0.000000000e+00

Gurobi 7.0.1 (win64, Python) logging started 11/14/16 15:34:06

Optimize a model with 16 rows, 19 columns and 42 nonzeros
Coefficient statistics:
  Matrix range     [1e+00, 1e+00]
  Objective range  [0e+00, 0e+00]
  Bounds range     [0e+00, 0e+00]
  RHS range        [1e+00, 1e+00]
Presolve removed 16 rows and 19 columns
Presolve time: 0.00s
Presolve: All rows and columns removed
Iteration    Objective       Primal Inf.    Dual Inf.      Time
       0    0.0000000e+00   0.000000e+00   0.000000e+00      0s

Solved in 0 iterations and 0.00 seconds
Optimal objective  0.000000000e+00

Gurobi 7.0.1 (win64, Python) logging started 11/14/16 15:37:11


Gurobi 7.0.1 (win64, Python) logging started 11/14/16 15:38:21


Gurobi 7.0.1 (win64, Python) logging started 11/14/16 15:38:55


Gurobi 7.0.1 (win64, Python) logging started 11/14/16 15:39:22

Optimize a model with 16 rows, 19 columns and 42 nonzeros
Coefficient statistics:
  Matrix range     [1e+00, 1e+00]
  Objective range  [1e+00, 1e+00]
  Bounds range     [0e+00, 0e+00]
  RHS range        [1e+00, 1e+00]
Presolve removed 16 rows and 16 columns
Presolve time: 0.00s

Solved in 0 iterations and 0.00 seconds
Infeasible or unbounded model

Gurobi 7.0.1 (win64, Python) logging started 11/14/16 15:39:50

Optimize a model with 16 rows, 19 columns and 42 nonzeros
Coefficient statistics:
  Matrix range     [1e+00, 1e+00]
  Objective range  [0e+00, 0e+00]
  Bounds range     [0e+00, 0e+00]
  RHS range        [1e+00, 1e+00]
Presolve removed 16 rows and 19 columns
Presolve time: 0.00s
Presolve: All rows and columns removed
Iteration    Objective       Primal Inf.    Dual Inf.      Time
       0    0.0000000e+00   0.000000e+00   0.000000e+00      0s

Solved in 0 iterations and 0.00 seconds
Optimal objective  0.000000000e+00

Gurobi 7.0.1 (win64, Python) logging started 11/14/16 15:45:52

Optimize a model with 16 rows, 19 columns and 42 nonzeros
Coefficient statistics:
  Matrix range     [1e+00, 1e+00]
  Objective range  [1e+00, 1e+00]
  Bounds range     [1e+01, 1e+01]
  RHS range        [1e+00, 1e+00]
Presolve removed 12 rows and 11 columns
Presolve time: 0.00s
Presolved: 4 rows, 8 columns, 13 nonzeros

Iteration    Objective       Primal Inf.    Dual Inf.      Time
       0   -7.4000000e+01   3.650000e+01   0.000000e+00      0s
       4   -3.6666667e+01   0.000000e+00   0.000000e+00      0s

Solved in 4 iterations and 0.00 seconds
Optimal objective -3.666666667e+01

Gurobi 7.0.1 (win64, Python) logging started 11/14/16 16:21:02


Gurobi 7.0.1 (win64, Python) logging started 11/14/16 16:21:33

Optimize a model with 16 rows, 34 columns and 42 nonzeros
Model has 15 SOS constraints
Variable types: 34 continuous, 0 integer (0 binary)
Coefficient statistics:
  Matrix range     [1e+00, 1e+00]
  Objective range  [1e+00, 1e+00]
  Bounds range     [0e+00, 0e+00]
  RHS range        [1e+00, 1e+00]
Presolve removed 16 rows and 34 columns
Presolve time: 0.03s
Presolve: All rows and columns removed

Explored 0 nodes (0 simplex iterations) in 0.05 seconds
Thread count was 1 (of 4 available processors)

Solution count 1: 14 
Pool objective bound 14

Optimal solution found (tolerance 1.00e-04)
Best objective 1.400000000000e+01, best bound 1.400000000000e+01, gap 0.0000%

Gurobi 7.0.1 (win64, Python) logging started 11/14/16 16:21:59

Optimize a model with 16 rows, 34 columns and 42 nonzeros
Model has 15 SOS constraints
Variable types: 34 continuous, 0 integer (0 binary)
Coefficient statistics:
  Matrix range     [1e+00, 1e+00]
  Objective range  [1e+00, 1e+00]
  Bounds range     [0e+00, 0e+00]
  RHS range        [1e+00, 1e+00]
Presolve removed 16 rows and 34 columns
Presolve time: 0.00s
Presolve: All rows and columns removed

Explored 0 nodes (0 simplex iterations) in 0.00 seconds
Thread count was 1 (of 4 available processors)

Solution count 1: 46 
Pool objective bound 46

Optimal solution found (tolerance 1.00e-04)
Best objective 4.600000000000e+01, best bound 4.600000000000e+01, gap 0.0000%

Gurobi 7.0.1 (win64, Python) logging started 11/14/16 16:23:04

Optimize a model with 16 rows, 34 columns and 42 nonzeros
Model has 15 SOS constraints
Variable types: 34 continuous, 0 integer (0 binary)
Coefficient statistics:
  Matrix range     [1e+00, 1e+00]
  Objective range  [1e+00, 1e+00]
  Bounds range     [0e+00, 0e+00]
  RHS range        [1e+00, 1e+00]
Presolve removed 16 rows and 34 columns
Presolve time: 0.00s
Presolve: All rows and columns removed

Explored 0 nodes (0 simplex iterations) in 0.00 seconds
Thread count was 1 (of 4 available processors)

Solution count 1: 46 
Pool objective bound 46

Optimal solution found (tolerance 1.00e-04)
Best objective 4.600000000000e+01, best bound 4.600000000000e+01, gap 0.0000%

Gurobi 7.0.1 (win64, Python) logging started 11/14/16 16:23:30

Optimize a model with 16 rows, 34 columns and 42 nonzeros
Model has 15 SOS constraints
Variable types: 34 continuous, 0 integer (0 binary)
Coefficient statistics:
  Matrix range     [1e+00, 1e+00]
  Objective range  [1e+00, 1e+00]
  Bounds range     [0e+00, 0e+00]
  RHS range        [1e+00, 1e+00]
Presolve removed 16 rows and 34 columns
Presolve time: 0.00s
Presolve: All rows and columns removed

Explored 0 nodes (0 simplex iterations) in 0.00 seconds
Thread count was 1 (of 4 available processors)

Solution count 1: 46 
Pool objective bound 46

Optimal solution found (tolerance 1.00e-04)
Best objective 4.600000000000e+01, best bound 4.600000000000e+01, gap 0.0000%

Gurobi 7.0.1 (win64, Python) logging started 11/14/16 16:24:11

Optimize a model with 17 rows, 34 columns and 43 nonzeros
Model has 15 SOS constraints
Variable types: 34 continuous, 0 integer (0 binary)
Coefficient statistics:
  Matrix range     [1e+00, 1e+00]
  Objective range  [1e+00, 1e+00]
  Bounds range     [0e+00, 0e+00]
  RHS range        [1e+00, 1e+00]
Presolve removed 17 rows and 34 columns
Presolve time: 0.00s
Presolve: All rows and columns removed

Explored 0 nodes (0 simplex iterations) in 0.00 seconds
Thread count was 1 (of 4 available processors)

Solution count 1: 60 
Pool objective bound 60

Optimal solution found (tolerance 1.00e-04)
Best objective 6.000000000000e+01, best bound 6.000000000000e+01, gap 0.0000%

Gurobi 7.0.1 (win64, Python) logging started 11/14/16 16:25:18

Optimize a model with 16 rows, 34 columns and 42 nonzeros
Model has 15 SOS constraints
Variable types: 34 continuous, 0 integer (0 binary)
Coefficient statistics:
  Matrix range     [1e+00, 1e+00]
  Objective range  [1e+00, 1e+00]
  Bounds range     [0e+00, 0e+00]
  RHS range        [1e+00, 1e+00]
Presolve removed 16 rows and 34 columns
Presolve time: 0.00s
Presolve: All rows and columns removed

Explored 0 nodes (0 simplex iterations) in 0.00 seconds
Thread count was 1 (of 4 available processors)

Solution count 1: 14 
Pool objective bound 14

Optimal solution found (tolerance 1.00e-04)
Best objective 1.400000000000e+01, best bound 1.400000000000e+01, gap 0.0000%

Gurobi 7.0.1 (win64, Python) logging started 11/14/16 16:28:45

Optimize a model with 16 rows, 34 columns and 42 nonzeros
Model has 15 SOS constraints
Variable types: 34 continuous, 0 integer (0 binary)
Coefficient statistics:
  Matrix range     [1e+00, 1e+00]
  Objective range  [1e+00, 1e+00]
  Bounds range     [0e+00, 0e+00]
  RHS range        [1e+00, 1e+00]
Presolve removed 16 rows and 34 columns
Presolve time: 0.02s
Presolve: All rows and columns removed

Explored 0 nodes (0 simplex iterations) in 0.02 seconds
Thread count was 1 (of 4 available processors)

Solution count 1: 5 
Pool objective bound 5

Optimal solution found (tolerance 1.00e-04)
Best objective 5.000000000000e+00, best bound 5.000000000000e+00, gap 0.0000%

Gurobi 7.0.1 (win64, Python) logging started 11/14/16 16:29:14

Optimize a model with 16 rows, 34 columns and 42 nonzeros
Model has 15 SOS constraints
Variable types: 34 continuous, 0 integer (0 binary)
Coefficient statistics:
  Matrix range     [1e+00, 1e+00]
  Objective range  [1e+00, 1e+00]
  Bounds range     [0e+00, 0e+00]
  RHS range        [1e+00, 1e+00]
Presolve removed 16 rows and 34 columns
Presolve time: 0.00s
Presolve: All rows and columns removed

Explored 0 nodes (0 simplex iterations) in 0.00 seconds
Thread count was 1 (of 4 available processors)

Solution count 1: 5 
Pool objective bound 5

Optimal solution found (tolerance 1.00e-04)
Best objective 5.000000000000e+00, best bound 5.000000000000e+00, gap 0.0000%

Gurobi 7.0.1 (win64, Python) logging started 11/14/16 16:56:15

Optimize a model with 17 rows, 34 columns and 43 nonzeros
Model has 15 SOS constraints
Variable types: 34 continuous, 0 integer (0 binary)
Coefficient statistics:
  Matrix range     [1e+00, 1e+00]
  Objective range  [1e+00, 1e+00]
  Bounds range     [0e+00, 0e+00]
  RHS range        [1e+00, 1e+00]
Presolve removed 14 rows and 31 columns
Presolve time: 0.03s
Presolved: 3 rows, 3 columns, 6 nonzeros
Variable types: 3 continuous, 0 integer (0 binary)

Root relaxation: objective 1.120000e+01, 2 iterations, 0.00 seconds

    Nodes    |    Current Node    |     Objective Bounds      |     Work
 Expl Unexpl |  Obj  Depth IntInf | Incumbent    BestBd   Gap | It/Node Time

*    0     0               0      11.2000000   11.20000  0.00%     -    0s

Explored 0 nodes (2 simplex iterations) in 0.10 seconds
Thread count was 4 (of 4 available processors)

Solution count 1: 11.2 
Pool objective bound 11.2

Optimal solution found (tolerance 1.00e-04)
Best objective 1.120000000000e+01, best bound 1.120000000000e+01, gap 0.0000%

Gurobi 7.0.1 (win64, Python) logging started 11/14/16 16:58:17


Gurobi 7.0.1 (win64, Python) logging started 11/14/16 17:10:06

Optimize a model with 16 rows, 34 columns and 42 nonzeros
Model has 15 SOS constraints
Variable types: 34 continuous, 0 integer (0 binary)
Coefficient statistics:
  Matrix range     [1e+00, 1e+00]
  Objective range  [1e+00, 1e+00]
  Bounds range     [0e+00, 0e+00]
  RHS range        [1e+00, 1e+00]
Presolve removed 16 rows and 34 columns
Presolve time: 0.00s
Presolve: All rows and columns removed

Explored 0 nodes (0 simplex iterations) in 0.00 seconds
Thread count was 1 (of 4 available processors)

Solution count 1: 5 
Pool objective bound 5

Optimal solution found (tolerance 1.00e-04)
Best objective 5.000000000000e+00, best bound 5.000000000000e+00, gap 0.0000%

Gurobi 7.0.1 (win64, Python) logging started 11/14/16 17:13:38

Optimize a model with 16 rows, 34 columns and 42 nonzeros
Model has 15 SOS constraints
Variable types: 34 continuous, 0 integer (0 binary)
Coefficient statistics:
  Matrix range     [1e+00, 1e+00]
  Objective range  [1e+00, 1e+00]
  Bounds range     [0e+00, 0e+00]
  RHS range        [1e+00, 1e+00]
Presolve removed 16 rows and 34 columns
Presolve time: 0.00s
Presolve: All rows and columns removed

Explored 0 nodes (0 simplex iterations) in 0.00 seconds
Thread count was 1 (of 4 available processors)

Solution count 1: 5 
Pool objective bound 5

Optimal solution found (tolerance 1.00e-04)
Best objective 5.000000000000e+00, best bound 5.000000000000e+00, gap 0.0000%

Gurobi 7.0.1 (win64, Python) logging started 11/14/16 17:16:11

Optimize a model with 16 rows, 34 columns and 42 nonzeros
Model has 15 SOS constraints
Variable types: 34 continuous, 0 integer (0 binary)
Coefficient statistics:
  Matrix range     [1e+00, 1e+00]
  Objective range  [1e+00, 1e+00]
  Bounds range     [0e+00, 0e+00]
  RHS range        [1e+00, 1e+00]
Presolve removed 16 rows and 34 columns
Presolve time: 0.00s
Presolve: All rows and columns removed

Explored 0 nodes (0 simplex iterations) in 0.00 seconds
Thread count was 1 (of 4 available processors)

Solution count 1: 5 
Pool objective bound 5

Optimal solution found (tolerance 1.00e-04)
Best objective 5.000000000000e+00, best bound 5.000000000000e+00, gap 0.0000%

Gurobi 7.0.1 (win64, Python) logging started 11/14/16 17:16:33

Optimize a model with 17 rows, 34 columns and 43 nonzeros
Model has 15 SOS constraints
Variable types: 34 continuous, 0 integer (0 binary)
Coefficient statistics:
  Matrix range     [1e+00, 1e+00]
  Objective range  [1e+00, 1e+00]
  Bounds range     [0e+00, 0e+00]
  RHS range        [1e+00, 1e+00]
Presolve removed 17 rows and 34 columns
Presolve time: 0.00s
Presolve: All rows and columns removed

Explored 0 nodes (0 simplex iterations) in 0.00 seconds
Thread count was 1 (of 4 available processors)

Solution count 1: 15.3333 
Pool objective bound 15.3333

Optimal solution found (tolerance 1.00e-04)
Best objective 1.533333333333e+01, best bound 1.533333333333e+01, gap 0.0000%

Gurobi 7.0.1 (win64, Python) logging started 11/14/16 17:17:53

Optimize a model with 17 rows, 34 columns and 43 nonzeros
Model has 15 SOS constraints
Variable types: 34 continuous, 0 integer (0 binary)
Coefficient statistics:
  Matrix range     [1e+00, 1e+00]
  Objective range  [1e+00, 1e+00]
  Bounds range     [0e+00, 0e+00]
  RHS range        [1e+00, 1e+00]
Presolve removed 17 rows and 34 columns
Presolve time: 0.00s
Presolve: All rows and columns removed

Explored 0 nodes (0 simplex iterations) in 0.00 seconds
Thread count was 1 (of 4 available processors)

Solution count 1: 14 
Pool objective bound 14

Optimal solution found (tolerance 1.00e-04)
Best objective 1.400000000000e+01, best bound 1.400000000000e+01, gap 0.0000%

Gurobi 7.0.1 (win64, Python) logging started 11/14/16 17:21:36

Optimize a model with 17 rows, 34 columns and 43 nonzeros
Model has 15 SOS constraints
Variable types: 34 continuous, 0 integer (0 binary)
Coefficient statistics:
  Matrix range     [1e+00, 1e+00]
  Objective range  [1e+00, 1e+00]
  Bounds range     [0e+00, 0e+00]
  RHS range        [1e+00, 1e+00]
Presolve removed 17 rows and 34 columns
Presolve time: 0.00s
Presolve: All rows and columns removed

Explored 0 nodes (0 simplex iterations) in 0.00 seconds
Thread count was 1 (of 4 available processors)

Solution count 1: 15.3333 
Pool objective bound 15.3333

Optimal solution found (tolerance 1.00e-04)
Best objective 1.533333333333e+01, best bound 1.533333333333e+01, gap 0.0000%

Gurobi 7.0.1 (win64, Python) logging started 11/14/16 17:24:43

Optimize a model with 18 rows, 34 columns and 44 nonzeros
Model has 15 SOS constraints
Variable types: 34 continuous, 0 integer (0 binary)
Coefficient statistics:
  Matrix range     [1e+00, 1e+00]
  Objective range  [1e+00, 1e+00]
  Bounds range     [0e+00, 0e+00]
  RHS range        [1e+00, 1e+00]
Presolve removed 10 rows and 4 columns
Presolve time: 0.01s

Explored 0 nodes (0 simplex iterations) in 0.01 seconds
Thread count was 1 (of 4 available processors)

Solution count 0
Pool objective bound 1e+100

Model is infeasible
Best objective -, best bound -, gap -

Gurobi 7.0.1 (win64, Python) logging started 11/14/16 17:26:38

Optimize a model with 19 rows, 34 columns and 45 nonzeros
Model has 15 SOS constraints
Variable types: 34 continuous, 0 integer (0 binary)
Coefficient statistics:
  Matrix range     [1e+00, 1e+00]
  Objective range  [1e+00, 1e+00]
  Bounds range     [0e+00, 0e+00]
  RHS range        [1e+00, 1e+00]
Presolve removed 13 rows and 4 columns
Presolve time: 0.00s

Explored 0 nodes (0 simplex iterations) in 0.00 seconds
Thread count was 1 (of 4 available processors)

Solution count 0
Pool objective bound 1e+100

Model is infeasible
Best objective -, best bound -, gap -

Gurobi 7.0.1 (win64, Python) logging started 11/14/16 17:27:22

Optimize a model with 18 rows, 34 columns and 44 nonzeros
Model has 15 SOS constraints
Variable types: 34 continuous, 0 integer (0 binary)
Coefficient statistics:
  Matrix range     [1e+00, 1e+00]
  Objective range  [1e+00, 1e+00]
  Bounds range     [0e+00, 0e+00]
  RHS range        [1e+00, 1e+00]
Presolve removed 18 rows and 34 columns
Presolve time: 0.00s
Presolve: All rows and columns removed

Explored 0 nodes (0 simplex iterations) in 0.00 seconds
Thread count was 1 (of 4 available processors)

Solution count 1: 16.3333 
Pool objective bound 16.3333

Optimal solution found (tolerance 1.00e-04)
Best objective 1.633333333333e+01, best bound 1.633333333333e+01, gap 0.0000%

Gurobi 7.0.1 (win64, Python) logging started 11/14/16 17:32:48


Gurobi 7.0.1 (win64, Python) logging started 11/14/16 17:35:41

Optimize a model with 18 rows, 34 columns and 79 nonzeros
Model has 15 SOS constraints
Variable types: 34 continuous, 0 integer (0 binary)
Coefficient statistics:
  Matrix range     [1e+00, 1e+00]
  Objective range  [1e+00, 1e+00]
  Bounds range     [0e+00, 0e+00]
  RHS range        [1e+00, 1e+00]
Presolve removed 9 rows and 19 columns
Presolve time: 0.01s
Presolved: 9 rows, 15 columns, 37 nonzeros
Variable types: 15 continuous, 0 integer (0 binary)

Root relaxation: objective 7.600000e+00, 10 iterations, 0.00 seconds

    Nodes    |    Current Node    |     Objective Bounds      |     Work
 Expl Unexpl |  Obj  Depth IntInf | Incumbent    BestBd   Gap | It/Node Time

*    0     0               0       7.6000000    7.60000  0.00%     -    0s

Explored 0 nodes (10 simplex iterations) in 0.02 seconds
Thread count was 4 (of 4 available processors)

Solution count 1: 7.6 
Pool objective bound 7.6

Optimal solution found (tolerance 1.00e-04)
Best objective 7.600000000000e+00, best bound 7.600000000000e+00, gap 0.0000%

Gurobi 7.0.1 (win64, Python) logging started 11/14/16 17:36:57

Optimize a model with 18 rows, 34 columns and 79 nonzeros
Model has 15 SOS constraints
Variable types: 34 continuous, 0 integer (0 binary)
Coefficient statistics:
  Matrix range     [1e+00, 1e+00]
  Objective range  [1e+00, 1e+00]
  Bounds range     [0e+00, 0e+00]
  RHS range        [1e+00, 1e+00]
Presolve removed 9 rows and 19 columns
Presolve time: 0.00s
Presolved: 9 rows, 15 columns, 37 nonzeros
Variable types: 15 continuous, 0 integer (0 binary)

Root relaxation: objective 7.600000e+00, 10 iterations, 0.00 seconds

    Nodes    |    Current Node    |     Objective Bounds      |     Work
 Expl Unexpl |  Obj  Depth IntInf | Incumbent    BestBd   Gap | It/Node Time

*    0     0               0       7.6000000    7.60000  0.00%     -    0s

Explored 0 nodes (10 simplex iterations) in 0.01 seconds
Thread count was 4 (of 4 available processors)

Solution count 1: 7.6 
Pool objective bound 7.6

Optimal solution found (tolerance 1.00e-04)
Best objective 7.600000000000e+00, best bound 7.600000000000e+00, gap 0.0000%

Gurobi 7.0.1 (win64, Python) logging started 11/14/16 17:38:04

Optimize a model with 18 rows, 34 columns and 79 nonzeros
Model has 15 SOS constraints
Variable types: 34 continuous, 0 integer (0 binary)
Coefficient statistics:
  Matrix range     [1e+00, 1e+00]
  Objective range  [1e+00, 1e+00]
  Bounds range     [0e+00, 0e+00]
  RHS range        [1e+00, 1e+00]
Presolve removed 18 rows and 34 columns
Presolve time: 0.00s
Presolve: All rows and columns removed

Explored 0 nodes (0 simplex iterations) in 0.00 seconds
Thread count was 1 (of 4 available processors)

Solution count 1: 6.33333 
Pool objective bound 6.33333

Optimal solution found (tolerance 1.00e-04)
Best objective 6.333333333333e+00, best bound 6.333333333333e+00, gap 0.0000%

Gurobi 7.0.1 (win64, Python) logging started 11/14/16 17:38:55

Optimize a model with 18 rows, 34 columns and 79 nonzeros
Model has 15 SOS constraints
Variable types: 34 continuous, 0 integer (0 binary)
Coefficient statistics:
  Matrix range     [1e+00, 1e+00]
  Objective range  [1e+00, 1e+00]
  Bounds range     [0e+00, 0e+00]
  RHS range        [1e+00, 1e+00]
Presolve removed 18 rows and 34 columns
Presolve time: 0.00s
Presolve: All rows and columns removed

Explored 0 nodes (0 simplex iterations) in 0.00 seconds
Thread count was 1 (of 4 available processors)

Solution count 1: 6.33333 
Pool objective bound 6.33333

Optimal solution found (tolerance 1.00e-04)
Best objective 6.333333333333e+00, best bound 6.333333333333e+00, gap 0.0000%

Gurobi 7.0.1 (win64, Python) logging started 11/14/16 17:39:41

Optimize a model with 18 rows, 34 columns and 79 nonzeros
Model has 15 SOS constraints
Variable types: 34 continuous, 0 integer (0 binary)
Coefficient statistics:
  Matrix range     [1e+00, 1e+00]
  Objective range  [1e+00, 1e+00]
  Bounds range     [0e+00, 0e+00]
  RHS range        [1e+00, 1e+00]
Presolve removed 18 rows and 34 columns
Presolve time: 0.00s
Presolve: All rows and columns removed

Explored 0 nodes (0 simplex iterations) in 0.00 seconds
Thread count was 1 (of 4 available processors)

Solution count 1: 6.33333 
Pool objective bound 6.33333

Optimal solution found (tolerance 1.00e-04)
Best objective 6.333333333333e+00, best bound 6.333333333333e+00, gap 0.0000%

Gurobi 7.0.1 (win64, Python) logging started 11/14/16 17:40:24

Optimize a model with 18 rows, 34 columns and 79 nonzeros
Model has 15 SOS constraints
Variable types: 34 continuous, 0 integer (0 binary)
Coefficient statistics:
  Matrix range     [1e+00, 1e+00]
  Objective range  [1e+00, 1e+00]
  Bounds range     [0e+00, 0e+00]
  RHS range        [1e+00, 1e+00]
Presolve removed 18 rows and 34 columns
Presolve time: 0.00s
Presolve: All rows and columns removed

Explored 0 nodes (0 simplex iterations) in 0.00 seconds
Thread count was 1 (of 4 available processors)

Solution count 1: 6.33333 
Pool objective bound 6.33333

Optimal solution found (tolerance 1.00e-04)
Best objective 6.333333333333e+00, best bound 6.333333333333e+00, gap 0.0000%

Gurobi 7.0.1 (win64, Python) logging started 11/14/16 17:41:55

Optimize a model with 19 rows, 34 columns and 80 nonzeros
Model has 15 SOS constraints
Variable types: 34 continuous, 0 integer (0 binary)
Coefficient statistics:
  Matrix range     [1e+00, 1e+00]
  Objective range  [1e+00, 1e+00]
  Bounds range     [0e+00, 0e+00]
  RHS range        [1e+00, 1e+00]
Presolve removed 19 rows and 34 columns
Presolve time: 0.00s
Presolve: All rows and columns removed

Explored 0 nodes (0 simplex iterations) in 0.00 seconds
Thread count was 1 (of 4 available processors)

Solution count 1: 7.33333 
Pool objective bound 7.33333

Optimal solution found (tolerance 1.00e-04)
Best objective 7.333333333333e+00, best bound 7.333333333333e+00, gap 0.0000%
